c ---- [ banner ] ------------------------------------------------------------
c
c Kissat SAT Solver
c 
c Copyright (c) 2021-2024 Armin Biere University of Freiburg
c Copyright (c) 2019-2021 Armin Biere Johannes Kepler University Linz
c 
c Version 4.0.1 43f02cf3e992cb44653b35e5cb26f93281552ae0
c gcc (Ubuntu 13.2.0-23ubuntu4) 13.2.0 -W -Wall -O3 -DNDEBUG
c Thu Sep 12 12:27:46 CEST 2024 Linux abryzen9 6.8.0-41-generic x86_64
c
c ---- [ parsing ] -----------------------------------------------------------
c
c opened and reading DIMACS file:
c
c   /data/artifact/AMulet2.0_artifact/exp4/cnf_compress2rs_64/64_64_U_SP_WT_KS_GenMul_compress2rs.cnf
c
c parsed 'p cnf 36634 142484' header
c closing input after reading 2774545 bytes (3 MB)
c finished parsing after 0.04 seconds
c
c ---- [ options ] -----------------------------------------------------------
c
c --stable=0                       (different from default '1')
c
c ---- [ solving ] -----------------------------------------------------------
c
c  seconds switched rate     size/glue tier1  binary           remaining
c         MB reductions conflicts size  tier2     irredundant
c          level restarts redundant glue  trail           variables
c
c *  0.04 11 0 0 0  0 0   0   0 0.0 0 0 0 0 0% 29576 112906 36631 100%
c (  0.06 13 0 0 0  0 0   0   0 0.0 0 0 0 0 0% 29576 112906 36631 100%
c .  0.07 13 0 0 0  0 0   0   0 0.0 0 0 0 0 0% 29572 112906 36631 100%
c c  0.18 21 0 0 0  0 0   0   0 0.0 0 0 0 0 0% 37134 98019 32848 90%
c d  0.19 21 0 0 0  0 0   0   0 0.0 0 0 0 0 0% 29568 98019 32848 90%
c =  0.25 21 0 0 0  0 0   0   0 0.0 0 0 0 0 0% 29996 98019 32555 89%
c d  0.26 22 0 0 0  0 0   0   0 0.0 0 0 0 0 0% 29410 98019 32555 89%
c f  0.38 20 0 0 0  0 0   0   0 0.0 0 0 0 0 0% 32264 93448 34270 94%
c e  0.54 29 0 0 0  0 0   0   0 0.0 0 0 0 0 0% 10548 107341 23216 63%
c )  0.54 29 0 0 0  0 0   0   0 0.0 0 0 0 0 0% 10548 107341 23216 63%
c {  0.57 29 0 0 0  0 0   0   0 0.0 0 0 2 6 0% 10548 107341 23216 63%
c -  0.83 29 149 0 1 294 31 1000 749 2.7 12 4 2 6 19% 10656 107337 23216 63%
c -  1.22 29 183 0 2 545 38 2001 1484 4.1 23 6 2 8 21% 10693 107324 23216 63%
c c  1.35 23 170 0 2 571 34 2503 1817 3.7 21 6 2 8 21% 10758 107263 23195 63%
c d  1.35 23 170 0 2 571 34 2503 1798 3.7 21 6 2 8 21% 10716 107263 23195 63%
c u  1.37 23 170 0 2 571 34 2503 1420 3.7 21 6 2 8 21% 10723 107263 23195 63%
c v  1.38 23 170 0 2 571 34 2503 1137 3.7 21 6 2 8 21% 10723 107263 23195 63%
c w  1.39 23 170 0 2 571 34 2503 1112 3.7 21 6 2 8 21% 10723 107263 23195 63%
c x  1.41 23 170 0 2 571 34 2503 1112 3.7 21 6 2 8 21% 10815 107077 23195 63%
c =  1.47 25 170 0 2 571 34 2503 1112 3.7 21 6 2 8 21% 11139 107077 23033 63%
c
c  seconds   switched   rate       size/glue tier1    binary           remaining
c         MB  reductions conflicts       size  tier2      irredundant
c           level restarts    redundant    glue   trail           variables
c
c d  1.47 25 170 0 2 571 34 2503 1112 3.7 21 6 2 8 21% 10814 107077 23033 63%
c t  1.48 25 170 0 2 571 34 2503 1112 3.7 21 6 2 8 21% 10799 107077 23033 63%
c f  1.50 25 170 0 2 571 34 2503 1112 3.7 21 6 2 8 21% 11480 105765 23661 65%
c u  1.52 25 170 0 2 571 34 2503 1077 3.7 21 6 2 8 21% 11483 105765 23661 65%
c v  1.53 25 170 0 2 571 34 2503 1035 3.7 21 6 2 8 21% 11483 105765 23661 65%
c w  1.54 25 170 0 2 571 34 2503 1030 3.7 21 6 2 8 21% 11483 105765 23661 65%
c x  1.56 25 170 0 2 571 34 2503 1030 3.7 21 6 2 8 21% 11486 105497 23661 65%
c =  1.62 25 170 0 2 571 34 2503 1030 3.7 21 6 2 8 21% 11944 105497 23432 64%
c d  1.62 25 170 0 2 571 34 2503 1029 3.7 21 6 2 8 21% 11423 105497 23432 64%
c t  1.63 25 170 0 2 571 34 2503 1029 3.7 21 6 2 8 21% 11422 105497 23432 64%
c f  1.65 25 170 0 2 571 34 2503 1029 3.7 21 6 2 8 21% 11990 104640 23714 65%
c -  1.89 27 221 0 3 719 39 3415 1580 4.6 28 6 2 9 22% 12024 104636 23714 65%
c -  2.00 27 339 0 4 767 33 5147 2644 4.2 23 5 2 8 22% 12160 104618 23714 65%
c -  2.30 27 389 0 5 1023 36 7147 3925 4.1 23 5 2 8 22% 12237 104618 23714 65%
c c  2.41 27 367 0 5 1071 35 7709 4446 4.0 22 5 2 8 23% 12254 104533 23688 65%
c d  2.42 27 367 0 5 1071 35 7709 4437 4.0 22 5 2 8 23% 12202 104533 23688 65%
c u  2.44 27 367 0 5 1071 35 7709 3513 4.0 22 5 2 8 23% 12215 104533 23688 65%
c v  2.45 27 367 0 5 1071 35 7709 3049 4.0 22 5 2 8 23% 12215 104533 23688 65%
c w  2.46 27 367 0 5 1071 35 7709 3041 4.0 22 5 2 8 23% 12215 104533 23688 65%
c x  2.49 27 367 0 5 1071 35 7709 3040 4.0 22 5 2 8 23% 12227 99987 23688 65%
c
c  seconds   switched    rate       size/glue tier1    binary          remaining
c         MB  reductions  conflicts       size  tier2      irredundant
c           level  restarts    redundant    glue   trail          variables
c
c =  2.57 27 367 0 5 1071 35 7709 3040 4.0 22 5 2 8 23% 13017 99987 23293 64%
c d  2.58 27 367 0 5 1071 35 7709 3034 4.0 22 5 2 8 23% 12131 99987 23293 64%
c f  2.61 27 367 0 5 1071 35 7709 3034 4.0 22 5 2 8 23% 13869 97380 24162 66%
c u  2.67 27 367 0 5 1071 35 7709 2772 4.0 22 5 2 8 23% 13872 97380 24162 66%
c v  2.68 27 367 0 5 1071 35 7709 2698 4.0 22 5 2 8 23% 13872 97380 24162 66%
c w  2.69 27 367 0 5 1071 35 7709 2692 4.0 22 5 2 8 23% 13872 97380 24162 66%
c x  2.72 27 367 0 5 1071 35 7709 2692 4.0 22 5 2 8 23% 13923 95191 24162 66%
c =  2.79 27 367 0 5 1071 35 7709 2692 4.0 22 5 2 8 23% 14469 95191 23889 65%
c d  2.80 27 367 0 5 1071 35 7709 2688 4.0 22 5 2 8 23% 13836 95191 23889 65%
c t  2.81 27 367 0 5 1071 35 7709 2688 4.0 22 5 2 8 23% 13831 95191 23889 65%
c f  2.84 27 367 0 5 1071 35 7709 2688 4.0 22 5 2 8 23% 13840 95177 23894 65%
c -  3.09 27 351 0 6 1175 33 9383 3693 3.9 21 5 2 8 23% 13902 95177 23894 65%
c o  3.19 27 359 0 6 1219 31 10614 4711 3.7 19 5 2 8 22% 13998 95174 23894 65%
c -  3.61 27 357 0 7 1387 33 11832 5268 3.9 21 5 2 7 23% 14025 95174 23894 65%
c s  3.77 27 359 0 7 1442 32 12513 5855 3.9 21 5 2 7 22% 14052 94032 23894 65%
c e  3.89 27 359 0 7 1442 32 12513 5855 3.9 21 5 2 7 22% 11674 95751 22263 61%
c 2  3.89 27 359 0 7 1442 32 12513 5855 3.9 21 5 2 7 22% 11672 95751 22263 61%
c s  3.90 27 359 0 7 1442 32 12513 5855 3.9 21 5 2 7 22% 11682 94939 22263 61%
c e  3.92 27 359 0 7 1442 32 12513 5855 3.9 21 5 2 7 22% 11678 94943 22259 61%
c ^  3.92 27 359 0 7 1442 32 12513 5855 3.9 21 5 2 7 22% 11678 94943 22259 61%
c
c  seconds   switched    rate        size/glue tier1    binary          remaining
c         MB  reductions   conflicts       size  tier2      irredundant
c           level  restarts     redundant    glue   trail          variables
c
c -  4.31 27 346 0 8 1576 32 14477 6260 3.7 20 5 2 7 22% 11724 94938 22259 61%
c d  4.58 27 332 0 8 1672 31 15787 7464 3.6 19 5 2 7 22% 11647 94923 22185 61%
c u  4.63 27 332 0 8 1672 31 15787 6008 3.6 19 5 2 7 22% 11670 94923 22185 61%
c v  4.67 27 332 0 8 1672 31 15787 5302 3.6 19 5 2 7 22% 11671 94923 22185 61%
c w  4.73 27 332 0 8 1672 31 15787 5284 3.6 19 5 2 7 22% 11671 94923 22185 61%
c x  4.76 27 332 0 8 1672 31 15787 5284 3.6 19 5 2 7 22% 11685 94647 22185 61%
c =  4.94 27 332 0 8 1672 31 15787 5284 3.6 19 5 2 7 22% 13203 94647 21426 58%
c d  4.95 27 332 0 8 1672 31 15787 5239 3.6 19 5 2 7 22% 11312 94647 21425 58%
c t  4.97 27 332 0 8 1672 31 15787 5239 3.6 19 5 2 7 22% 11297 94647 21425 58%
c f  5.04 27 332 0 8 1672 31 15787 5239 3.6 19 5 2 7 22% 11312 94613 21434 59%
c u  5.16 27 332 0 8 1672 31 15787 4880 3.6 19 5 2 7 22% 11318 94613 21434 59%
c v  5.19 27 332 0 8 1672 31 15787 4785 3.6 19 5 2 7 22% 11318 94613 21434 59%
c w  5.24 27 332 0 8 1672 31 15787 4765 3.6 19 5 2 7 22% 11318 94613 21434 59%
c x  5.29 27 332 0 8 1672 31 15787 4757 3.6 19 5 2 7 22% 11335 93315 21434 59%
c =  5.47 27 332 0 8 1672 31 15787 4757 3.6 19 5 2 7 22% 12903 93315 20650 56%
c d  5.48 27 332 0 8 1672 31 15787 4724 3.6 19 5 2 7 22% 10993 93315 20650 56%
c f  5.52 27 332 0 8 1672 31 15787 4724 3.6 19 5 2 7 22% 10998 93300 20655 56%
c -  5.89 27 316 0 9 1876 30 17305 5345 3.6 19 5 2 7 22% 11050 93300 20655 56%
c -  6.56 27 297 0 10 2166 29 20305 7235 3.4 18 5 2 7 22% 11090 93299 20655 56%
c o  6.70 27 295 0 10 2218 29 20694 7579 3.5 19 5 2 7 22% 11099 93299 20655 56%
c
c  seconds   switched     rate        size/glue tier1    binary          remaining
c         MB   reductions   conflicts       size  tier2      irredundant
c           level   restarts     redundant    glue   trail          variables
c
c -  7.14 27 297 0 11 2392 29 23467 8918 3.4 18 5 2 7 22% 11172 93299 20655 56%
c s  7.35 27 305 0 11 2469 29 25014 10226 3.4 18 5 2 7 21% 11253 92199 20655 56%
c e  7.50 27 305 0 11 2469 29 25014 10226 3.4 18 5 2 7 21% 10052 95525 17819 49%
c s  7.52 27 305 0 11 2469 29 25014 10226 3.4 18 5 2 7 21% 10082 91582 17819 49%
c e  7.57 27 305 0 11 2469 29 25014 10226 3.4 18 5 2 7 21% 10070 91606 17800 49%
c ^  7.57 27 305 0 11 2469 29 25014 10226 3.4 18 5 2 7 21% 10070 91606 17800 49%
c -  8.03 27 290 0 12 2648 28 26783 8775 3.3 18 5 2 7 22% 10108 91606 17800 49%
c d  8.08 27 289 0 12 2666 28 26914 8898 3.3 17 5 2 7 22% 10014 91606 17741 48%
c u  8.14 27 289 0 12 2666 28 26914 7371 3.3 17 5 2 7 22% 10031 91606 17741 48%
c v  8.18 27 289 0 12 2666 28 26914 6475 3.3 17 5 2 7 22% 10031 91606 17741 48%
c w  8.19 27 289 0 12 2666 28 26914 6467 3.3 17 5 2 7 22% 10031 91606 17741 48%
c x  8.29 27 289 0 12 2666 28 26914 6461 3.3 17 5 2 7 22% 10048 89225 17741 48%
c =  8.53 27 289 0 12 2666 28 26914 6461 3.3 17 5 2 7 22% 11410 89225 17060 47%
c d  8.54 27 289 0 12 2666 28 26914 6392 3.3 17 5 2 7 22% 9945 89225 17060 47%
c t  8.56 27 289 0 12 2666 28 26914 6392 3.3 17 5 2 7 22% 9899 89225 17060 47%
c f  8.65 27 289 0 12 2666 28 26914 6392 3.3 17 5 2 7 22% 9918 89095 17086 47%
c u  8.71 27 289 0 12 2666 28 26914 6041 3.3 17 5 2 7 22% 9923 89095 17086 47%
c v  8.75 27 289 0 12 2666 28 26914 5937 3.3 17 5 2 7 22% 9924 89095 17086 47%
c w  8.76 27 289 0 12 2666 28 26914 5936 3.3 17 5 2 7 22% 9924 89095 17086 47%
c x  8.86 27 289 0 12 2666 28 26914 5936 3.3 17 5 2 7 22% 9930 82647 17086 47%
c
c  seconds   switched     rate        size/glue tier1    binary          remaining
c         MB   reductions   conflicts       size  tier2      irredundant
c           level   restarts     redundant    glue   trail          variables
c
c =  9.03 27 289 0 12 2666 28 26914 5936 3.3 17 5 2 7 22% 12006 82647 16048 44%
c d  9.04 27 289 0 12 2666 28 26914 5854 3.3 17 5 2 7 22% 9892 82647 16048 44%
c t  9.05 27 289 0 12 2666 28 26914 5854 3.3 17 5 2 7 22% 9889 82647 16048 44%
c f  9.08 27 289 0 12 2666 28 26914 5854 3.3 17 5 2 7 22% 9889 82643 16049 44%
c -  9.57 27 269 0 13 3027 27 30248 8017 3.1 17 5 2 7 23% 9919 82642 16049 44%
c - 10.07 27 249 0 14 3455 26 33853 10137 3.0 17 6 2 7 23% 9952 82642 16049 44%
c - 10.55 27 243 0 15 3859 26 37594 12018 3.0 17 6 2 6 23% 9985 82641 16049 44%
c o 11.19 27 240 0 15 4238 26 40696 14831 3.0 17 6 2 6 24% 10023 82641 16049 44%
c c 11.39 27 239 0 15 4325 27 41242 15328 3.0 18 6 2 6 24% 10081 82400 15999 44%
c d 11.40 27 239 0 15 4325 27 41242 15252 3.0 18 6 2 6 24% 9975 82400 15995 44%
c u 11.47 27 239 0 15 4325 27 41242 12879 3.0 18 6 2 6 24% 9994 82400 15995 44%
c v 11.56 27 239 0 15 4325 27 41242 11358 3.0 18 6 2 6 24% 9996 82400 15995 44%
c w 11.64 27 239 0 15 4325 27 41242 11358 3.0 18 6 2 6 24% 9996 82400 15995 44%
c x 11.73 28 239 0 15 4325 27 41242 11358 3.0 18 6 2 6 24% 9996 76504 15995 44%
c = 12.05 28 239 0 15 4325 27 41242 11358 3.0 18 6 2 6 24% 10248 76504 15869 43%
c d 12.05 28 239 0 15 4325 27 41242 11345 3.0 18 6 2 6 24% 9979 76504 15865 43%
c t 12.07 28 239 0 15 4325 27 41242 11345 3.0 18 6 2 6 24% 9969 76504 15865 43%
c f 12.09 28 239 0 15 4325 27 41242 11345 3.0 18 6 2 6 24% 9969 76500 15866 43%
c u 12.16 28 239 0 15 4325 27 41242 10856 3.0 18 6 2 6 24% 9973 76500 15866 43%
c v 12.21 28 239 0 15 4325 27 41242 10596 3.0 18 6 2 6 24% 9973 76500 15866 43%
c
c  seconds   switched     rate         size/glue tier1    binary         remaining
c         MB   reductions   conflicts        size  tier2     irredundant
c           level   restarts      redundant    glue   trail         variables
c
c w 12.37 28 239 0 15 4325 27 41242 10583 3.0 18 6 2 6 24% 9973 76500 15866 43%
c x 12.45 28 239 0 15 4325 27 41242 10582 3.0 18 6 2 6 24% 9974 75301 15866 43%
c = 12.78 28 239 0 15 4325 27 41242 10582 3.0 18 6 2 6 24% 10904 75301 15401 42%
c d 12.78 28 239 0 15 4325 27 41242 10357 3.0 18 6 2 6 24% 9927 75301 15401 42%
c t 12.81 28 239 0 15 4325 27 41242 10357 3.0 18 6 2 6 24% 9916 75301 15401 42%
c f 12.83 28 239 0 15 4325 27 41242 10357 3.0 18 6 2 6 24% 9919 75282 15405 42%
c - 12.86 28 242 0 16 4326 27 41468 9382 3.0 17 6 2 6 24% 9938 75280 15405 42%
c - 13.58 28 231 0 17 4740 26 45468 11553 3.0 17 6 2 6 24% 9958 75279 15405 42%
c - 14.48 28 222 0 18 5243 26 49591 13723 2.9 17 6 2 6 24% 9989 75279 15405 42%
c s 15.04 28 219 0 18 5627 26 52114 16005 2.9 17 6 2 6 24% 10008 73111 15405 42%
c e 15.16 28 219 0 18 5627 26 52114 16005 2.9 17 6 2 6 24% 8690 75607 14401 39%
c s 15.17 28 219 0 18 5627 26 52114 16005 2.9 17 6 2 6 24% 8705 75104 14401 39%
c e 15.18 28 219 0 18 5627 26 52114 16005 2.9 17 6 2 6 24% 8690 75125 14390 39%
c ^ 15.18 28 219 0 18 5627 26 52114 16005 2.9 17 6 2 6 24% 8690 75125 14390 39%
c - 15.38 28 216 0 19 5734 25 53833 13763 2.9 17 6 2 6 24% 8703 75125 14390 39%
c - 16.09 28 206 0 20 6282 25 58191 15761 2.8 17 6 2 6 25% 8738 75125 14390 39%
c c 16.29 28 205 0 20 6396 25 58883 16401 2.8 17 6 2 6 25% 8788 74908 14354 39%
c d 16.30 28 205 0 20 6396 25 58883 16348 2.8 17 6 2 6 25% 8716 74908 14354 39%
c u 16.38 28 205 0 20 6396 25 58883 13685 2.8 17 6 2 6 25% 8725 74908 14354 39%
c v 16.46 28 205 0 20 6396 25 58883 11860 2.8 17 6 2 6 25% 8728 74908 14354 39%
c
c  seconds   switched     rate         size/glue tier1    binary         remaining
c         MB   reductions   conflicts        size  tier2     irredundant
c           level   restarts      redundant    glue   trail         variables
c
c w 16.50 28 205 0 20 6396 25 58883 11819 2.8 17 6 2 6 25% 8728 74908 14354 39%
c x 16.57 28 205 0 20 6396 25 58883 11815 2.8 17 6 2 6 25% 8729 74054 14354 39%
c d 16.80 28 205 0 20 6396 25 58883 11800 2.8 17 6 2 6 25% 8723 74054 14351 39%
c t 16.81 28 205 0 20 6396 25 58883 11800 2.8 17 6 2 6 25% 8698 74054 14351 39%
c f 16.84 28 205 0 20 6396 25 58883 11800 2.8 17 6 2 6 25% 8704 74027 14354 39%
c c 16.88 28 205 0 20 6396 25 58883 11787 2.8 17 6 2 6 25% 8710 74003 14351 39%
c d 16.89 28 205 0 20 6396 25 58883 11787 2.8 17 6 2 6 25% 8704 74003 14351 39%
c u 16.92 28 205 0 20 6396 25 58883 11352 2.8 17 6 2 6 25% 8710 74003 14351 39%
c v 16.95 28 205 0 20 6396 25 58883 11132 2.8 17 6 2 6 25% 8710 74003 14351 39%
c w 16.98 28 205 0 20 6396 25 58883 11106 2.8 17 6 2 6 25% 8710 74003 14351 39%
c x 17.07 28 205 0 20 6396 25 58883 11101 2.8 17 6 2 6 25% 8722 73177 14351 39%
c t 17.08 28 205 0 20 6396 25 58883 11101 2.8 17 6 2 6 25% 8714 73177 14351 39%
c - 17.63 28 198 0 21 6861 25 62663 13142 2.7 16 6 2 6 25% 8730 73176 14351 39%
c - 18.32 28 195 0 22 7522 25 67245 15686 2.7 16 6 2 6 26% 8761 73176 14351 39%
c o 18.78 28 193 0 22 7886 25 70701 18771 2.7 17 6 2 6 26% 8776 73176 14351 39%
c - 18.92 28 191 0 23 8014 25 71935 17806 2.7 17 6 2 5 26% 8801 73175 14351 39%
c - 19.83 28 190 0 24 8625 25 76730 19707 2.8 17 6 2 5 26% 8852 73174 14351 39%
c d 20.45 28 188 0 24 9100 25 79962 22297 2.8 18 6 2 5 26% 8765 73173 14278 39%
c u 20.55 28 188 0 24 9100 25 79962 18982 2.8 18 6 2 5 26% 8806 73173 14278 39%
c v 20.62 28 188 0 24 9100 25 79962 17139 2.8 18 6 2 5 26% 8810 73173 14278 39%
c
c  seconds   switched     rate         size/glue tier1    binary         remaining
c         MB   reductions   conflicts        size  tier2     irredundant
c           level   restarts      redundant    glue   trail         variables
c
c w 20.71 28 188 0 24 9100 25 79962 17109 2.8 18 6 2 5 26% 8810 73173 14278 39%
c x 20.78 28 188 0 24 9100 25 79962 17108 2.8 18 6 2 5 26% 8811 72502 14278 39%
c = 20.95 28 188 0 24 9100 25 79962 17108 2.8 18 6 2 5 26% 9069 72497 14149 39%
c d 20.95 28 188 0 24 9100 25 79962 16818 2.8 18 6 2 5 26% 8756 72497 14142 39%
c t 20.97 28 188 0 24 9100 25 79962 16818 2.8 18 6 2 5 26% 8733 72497 14142 39%
c f 20.98 28 188 0 24 9100 25 79962 16818 2.8 18 6 2 5 26% 8733 72481 14145 39%
c c 21.02 28 188 0 24 9100 25 79962 16818 2.8 18 6 2 5 26% 8738 72472 14143 39%
c d 21.03 28 188 0 24 9100 25 79962 16818 2.8 18 6 2 5 26% 8734 72472 14143 39%
c u 21.08 28 188 0 24 9100 25 79962 15989 2.8 18 6 2 5 26% 8741 72472 14143 39%
c v 21.11 28 188 0 24 9100 25 79962 15680 2.8 18 6 2 5 26% 8741 72472 14143 39%
c w 21.21 28 188 0 24 9100 25 79962 15323 2.8 18 6 2 5 26% 8741 72472 14143 39%
c x 21.29 28 188 0 24 9100 25 79962 15322 2.8 18 6 2 5 26% 8753 71976 14143 39%
c = 21.67 28 188 0 24 9100 25 79962 15322 2.8 18 6 2 5 26% 9263 71974 13888 38%
c d 21.67 28 188 0 24 9100 25 79962 15125 2.8 18 6 2 5 26% 8709 71974 13888 38%
c t 21.68 28 188 0 24 9100 25 79962 15125 2.8 18 6 2 5 26% 8698 71974 13888 38%
c f 21.70 28 188 0 24 9100 25 79962 15125 2.8 18 6 2 5 26% 8708 71936 13893 38%
c - 21.95 28 186 0 25 9313 25 81628 13453 2.8 18 6 1 5 26% 8720 71936 13893 38%
c - 22.43 28 178 0 26 9705 24 86628 15287 2.8 18 6 1 5 26% 8743 71931 13893 38%
c - 23.14 28 176 0 27 10206 24 91728 17072 2.8 18 6 1 5 26% 8782 71928 13893 38%
c s 23.69 28 174 0 27 10618 24 95810 20776 2.7 18 6 1 5 26% 8805 70888 13893 38%
c
c  seconds   switched      rate         size/glue tier1    binary         remaining
c         MB   reductions    conflicts        size  tier2     irredundant
c           level   restarts       redundant    glue   trail         variables
c
c e 23.78 28 174 0 27 10618 24 95810 20776 2.7 18 6 1 5 26% 5916 78558 12292 34%
c s 23.79 28 174 0 27 10618 24 95810 20776 2.7 18 6 1 5 26% 5939 77783 12292 34%
c e 23.81 28 174 0 27 10618 24 95810 20776 2.7 18 6 1 5 26% 5899 77946 12233 33%
c ^ 23.81 28 174 0 27 10618 24 95810 20776 2.7 18 6 1 5 26% 5899 77946 12233 33%
c - 24.02 28 173 0 28 10755 24 96926 14115 2.7 18 7 1 5 26% 5901 77946 12233 33%
c - 24.75 28 169 0 29 11331 24 102217 16275 2.7 18 7 1 5 26% 5929 77945 12233 33%
c d 25.09 28 167 0 29 11579 24 104601 18367 2.7 18 7 1 5 26% 5917 77945 12221 33%
c u 25.15 28 167 0 29 11579 24 104601 16348 2.7 18 7 1 5 26% 5938 77945 12221 33%
c v 25.23 28 167 0 29 11579 24 104601 13767 2.7 18 7 1 5 26% 5946 77945 12221 33%
c w 25.37 28 167 0 29 11579 24 104601 13530 2.7 18 7 1 5 26% 5946 77945 12221 33%
c x 25.46 28 167 0 29 11579 24 104601 13530 2.7 18 7 1 5 26% 5949 77890 12221 33%
c = 25.91 28 167 0 29 11579 24 104601 13530 2.7 18 7 1 5 26% 6511 77868 11938 33%
c d 25.92 28 167 0 29 11579 24 104601 13153 2.7 18 7 1 5 26% 5896 77868 11938 33%
c t 25.93 28 167 0 29 11579 24 104601 13153 2.7 18 7 1 5 26% 5862 77868 11938 33%
c f 25.99 28 167 0 29 11579 24 104601 13153 2.7 18 7 1 5 26% 5885 77713 11952 33%
c u 26.03 28 167 0 29 11579 24 104601 12541 2.7 18 7 1 5 26% 5887 77713 11952 33%
c v 26.06 28 167 0 29 11579 24 104601 12053 2.7 18 7 1 5 26% 5887 77713 11952 33%
c w 26.15 28 167 0 29 11579 24 104601 11841 2.7 18 7 1 5 26% 5887 77713 11952 33%
c = 26.52 28 167 0 29 11579 24 104601 11841 2.7 18 7 1 5 26% 5997 77713 11897 32%
c d 26.53 28 167 0 29 11579 24 104601 11822 2.7 18 7 1 5 26% 5886 77713 11897 32%
c
c  seconds   switched      rate          size/glue tier1    binary         remaining
c         MB   reductions    conflicts         size  tier2     irredundant
c           level   restarts        redundant    glue   trail         variables
c
c t 26.53 28 167 0 29 11579 24 104601 11822 2.7 18 7 1 5 26% 5885 77713 11897 32%
c - 26.99 28 165 0 30 11876 23 107604 12579 2.7 18 7 1 5 26% 5887 77712 11897 32%
c o 27.34 28 162 0 30 12149 23 110701 15420 2.7 18 7 1 5 26% 5895 77709 11897 32%
c - 27.70 28 161 0 31 12439 23 113082 15110 2.7 18 7 1 5 26% 5900 77709 11897 32%
c i 27.92 28 158 0 31 12601 23 115504 17208 2.6 18 7 1 5 25% 5926 77709 11896 32%
c - 28.31 28 157 0 32 12837 22 118649 17064 2.6 18 7 1 5 25% 5931 77708 11896 32%
c - 29.25 28 156 0 33 13503 23 124305 18664 2.6 18 7 1 5 26% 5952 77702 11896 32%
c - 30.21 28 156 0 34 14221 23 130052 20086 2.7 19 7 1 5 26% 5967 77701 11896 32%
c c 30.72 28 155 0 34 14574 23 132857 22667 2.7 19 7 1 5 26% 5993 77613 11875 32%
c d 30.72 28 155 0 34 14574 23 132857 22564 2.7 19 7 1 5 26% 5953 77611 11875 32%
c d 30.73 28 155 0 34 14574 23 132857 22564 2.7 19 7 1 5 26% 5951 77611 11874 32%
c u 30.77 28 155 0 34 14574 23 132857 20384 2.7 19 7 1 5 26% 5968 77611 11873 32%
c v 30.84 28 155 0 34 14574 23 132857 16903 2.7 19 7 1 5 26% 5971 77611 11872 32%
c w 30.97 28 155 0 34 14574 23 132857 16837 2.7 19 7 1 5 26% 5971 77611 11872 32%
c x 31.04 28 155 0 34 14574 23 132857 16837 2.7 19 7 1 5 26% 5971 77584 11872 32%
c = 31.51 28 155 0 34 14574 23 132857 16837 2.7 19 7 1 5 26% 6035 77584 11840 32%
c d 31.52 28 155 0 34 14574 23 132857 16773 2.7 19 7 1 5 26% 5957 77584 11837 32%
c t 31.53 28 155 0 34 14574 23 132857 16773 2.7 19 7 1 5 26% 5944 77584 11837 32%
c f 31.53 28 155 0 34 14574 23 132857 16773 2.7 19 7 1 5 26% 5948 77561 11839 32%
c u 31.58 28 155 0 34 14574 23 132857 16238 2.7 19 7 1 5 26% 5952 77561 11839 32%
c
c  seconds   switched      rate          size/glue tier1    binary         remaining
c         MB   reductions    conflicts         size  tier2     irredundant
c           level   restarts        redundant    glue   trail         variables
c
c v 31.62 28 155 0 34 14574 23 132857 15582 2.7 19 7 1 5 26% 5952 77561 11839 32%
c w 31.82 28 155 0 34 14574 23 132857 15143 2.7 19 7 1 5 26% 5952 77561 11839 32%
c = 32.30 28 155 0 34 14574 23 132857 15143 2.7 19 7 1 5 26% 5964 77561 11833 32%
c d 32.31 28 155 0 34 14574 23 132857 15129 2.7 19 7 1 5 26% 5949 77561 11833 32%
c t 32.31 28 155 0 34 14574 23 132857 15129 2.7 19 7 1 5 26% 5947 77561 11833 32%
c i 32.32 28 155 0 34 14574 23 132857 15129 2.7 19 7 1 5 26% 5947 77561 11833 32%
c - 32.64 28 154 0 35 14760 22 135882 15242 2.6 19 7 1 5 26% 5953 77559 11833 32%
c - 33.41 28 151 0 36 15269 22 141798 17823 2.6 19 7 1 5 26% 5961 77558 11833 32%
c - 34.54 28 149 0 37 16069 22 147798 20017 2.7 19 7 1 4 27% 5970 77558 11833 32%
c i 35.02 28 151 0 37 16359 22 151211 22928 2.7 20 7 1 4 27% 5990 77557 11832 32%
c i 35.37 28 152 0 37 16571 22 153529 24997 2.7 20 7 1 4 27% 6016 77555 11829 32%
c - 35.45 28 152 0 38 16624 22 153880 21257 2.7 20 7 1 4 27% 6000 77555 11829 32%
c i 35.80 28 150 0 38 16886 22 156281 23453 2.7 20 7 1 4 27% 6011 77553 11828 32%
c i 35.82 28 150 0 38 16888 22 156788 23898 2.7 20 7 1 4 26% 6014 77553 11827 32%
c s 36.05 28 150 0 38 17032 22 157900 24945 2.7 20 7 1 4 27% 6018 75813 11827 32%
c e 36.16 28 150 0 38 17032 22 157900 24945 2.7 20 7 1 4 27% 3421 88099 10218 28%
c s 36.18 28 150 0 38 17032 22 157900 24945 2.7 20 7 1 4 27% 3444 87082 10218 28%
c e 36.20 28 150 0 38 17032 22 157900 24945 2.7 20 7 1 4 27% 3398 87232 10178 28%
c ^ 36.20 28 150 0 38 17032 22 157900 24945 2.7 20 7 1 4 27% 3398 87232 10178 28%
c i 36.32 28 149 0 38 17089 22 158875 18879 2.7 20 7 1 4 27% 3404 87232 10177 28%
c
c  seconds   switched      rate          size/glue tier1    binary         remaining
c         MB   reductions    conflicts         size  tier2     irredundant
c           level   restarts        redundant    glue   trail         variables
c
c i 36.36 28 149 0 38 17125 22 159535 19475 2.7 20 7 1 4 27% 3410 87232 10176 28%
c - 36.45 28 148 0 39 17193 22 160044 17015 2.7 20 7 1 4 27% 3404 87206 10176 28%
c o 36.55 28 148 0 39 17272 22 160784 17693 2.7 20 7 1 4 26% 3406 87206 10176 28%
c i 36.76 28 147 0 39 17426 22 162141 18955 2.7 20 7 1 4 26% 3409 87206 10175 28%
c i 36.77 28 147 0 39 17434 22 162252 19044 2.7 20 7 1 4 26% 3411 87206 10174 28%
c c 37.12 28 146 0 39 17677 22 164843 21400 2.7 20 8 1 4 26% 3429 87139 10165 28%
c d 37.13 28 146 0 39 17677 22 164843 21280 2.7 20 8 1 4 26% 3415 87135 10165 28%
c d 37.13 28 146 0 39 17677 22 164843 21279 2.7 20 8 1 4 26% 3411 87135 10163 28%
c u 37.17 28 146 0 39 17677 22 164843 19028 2.7 20 8 1 4 26% 3440 87135 10161 28%
c v 37.22 28 146 0 39 17677 22 164843 16381 2.7 20 8 1 4 26% 3445 87135 10161 28%
c w 37.46 28 146 0 39 17677 22 164843 15811 2.7 20 8 1 4 26% 3444 87135 10161 28%
c = 37.97 28 146 0 39 17677 22 164843 15811 2.7 20 8 1 4 26% 3538 87051 10109 28%
c d 37.98 28 146 0 39 17677 22 164843 15653 2.7 20 8 1 4 26% 3433 87050 10109 28%
c t 37.99 28 146 0 39 17677 22 164843 15653 2.7 20 8 1 4 26% 3397 87050 10109 28%
c f 38.09 28 146 0 39 17677 22 164843 15653 2.7 20 8 1 4 26% 3446 86412 10138 28%
c u 38.13 28 146 0 39 17677 22 164843 14987 2.7 20 8 1 4 26% 3455 86412 10138 28%
c v 38.16 28 146 0 39 17677 22 164843 14475 2.7 20 8 1 4 26% 3456 86412 10138 28%
c w 38.34 28 146 0 39 17677 22 164843 13955 2.7 20 8 1 4 26% 3456 86412 10138 28%
c x 38.44 28 146 0 39 17677 22 164843 13927 2.7 20 8 1 4 26% 3497 84269 10138 28%
c = 38.96 28 146 0 39 17677 22 164843 13927 2.7 20 8 1 4 26% 3499 84269 10137 28%
c
c  seconds   switched      rate          size/glue tier1    binary         remaining
c         MB   reductions    conflicts         size  tier2     irredundant
c           level   restarts        redundant    glue   trail         variables
c
c d 38.96 28 146 0 39 17677 22 164843 13926 2.7 20 8 1 4 26% 3496 84269 10137 28%
c t 38.97 28 146 0 39 17677 22 164843 13926 2.7 20 8 1 4 26% 3475 84269 10137 28%
c i 38.98 28 146 0 39 17677 22 164843 13926 2.7 20 8 1 4 26% 3475 84269 10137 28%
c - 39.14 28 146 0 40 17750 22 166288 13168 2.7 20 8 1 4 26% 3463 84269 10137 28%
c i 39.45 28 145 0 40 17952 21 168508 15252 2.6 20 8 1 4 27% 3470 84269 10136 28%
c i 39.63 28 145 0 40 18076 21 169697 16378 2.6 20 8 1 4 27% 3472 84268 10135 28%
c i 39.63 28 145 0 40 18076 21 169705 16380 2.6 20 8 1 4 27% 3475 84268 10134 28%
c - 39.93 28 144 0 41 18256 21 172612 16184 2.6 20 8 1 4 27% 3468 84266 10134 28%
c i 40.36 28 144 0 41 18540 21 175818 19187 2.6 20 8 1 4 27% 3474 84266 10133 28%
c - 40.73 28 143 0 42 18777 21 179018 18721 2.6 20 8 1 4 27% 3477 84266 10133 28%
c i 40.76 28 143 0 42 18791 21 179357 19031 2.6 20 8 1 4 27% 3478 84266 10132 28%
c i 40.79 28 143 0 42 18820 21 180093 19637 2.6 20 8 1 4 27% 3484 84266 10131 28%
c i 40.96 28 142 0 42 18939 21 181492 20951 2.6 20 8 1 4 27% 3486 84266 10127 28%
c i 41.37 28 141 0 42 19224 21 184755 24017 2.6 20 8 1 4 27% 3488 84266 10126 28%
c i 41.42 28 141 0 42 19271 20 185381 24564 2.6 20 8 1 4 27% 3491 84266 10125 28%
c - 41.43 28 141 0 43 19271 20 185498 20192 2.6 20 8 1 4 27% 3468 84266 10125 28%
c i 41.49 28 140 0 43 19317 20 186167 20771 2.6 20 8 1 4 27% 3473 84266 10124 28%
c - 41.93 28 137 0 44 19664 20 192059 21229 2.6 20 8 1 4 26% 3481 84265 10124 28%
c i 41.98 28 136 0 44 19674 20 192640 21764 2.6 20 8 1 4 26% 3481 84265 10123 28%
c i 42.03 28 136 0 44 19732 20 193421 22431 2.6 20 8 1 4 26% 3488 84265 10122 28%
c
c  seconds   switched      rate          size/glue tier1    binary         remaining
c         MB   reductions    conflicts         size  tier2     irredundant
c           level   restarts        redundant    glue   trail         variables
c
c i 42.24 28 133 0 44 19951 19 197812 26228 2.6 20 8 1 4 26% 3496 84263 10121 28%
c i 42.24 28 133 0 44 19951 19 197840 26240 2.6 20 8 1 4 26% 3499 84263 10120 28%
c i 42.26 28 133 0 44 19968 19 198173 26518 2.6 20 8 1 4 26% 3501 84263 10119 28%
c i 42.27 28 133 0 44 19969 19 198219 26547 2.6 20 8 1 4 26% 3504 84263 10118 28%
c - 42.29 28 132 0 45 20010 19 198693 21578 2.6 20 8 1 4 26% 3496 84262 10118 28%
c i 42.30 28 132 0 45 20015 19 198884 21712 2.6 20 8 1 4 26% 3498 84262 10117 28%
c i 42.36 28 131 0 45 20092 19 200171 22873 2.6 20 8 1 4 26% 3503 84262 10116 28%
c d 42.39 28 131 0 45 20141 19 200640 22993 2.6 20 8 1 4 25% 3509 84045 10111 28%
c d 42.39 28 131 0 45 20141 19 200640 22985 2.6 20 8 1 4 25% 3493 84045 10103 28%
c b 42.40 28 131 0 45 20141 19 200640 22985 2.6 20 8 1 4 25% 3493 84045 10102 28%
c u 42.44 28 131 0 45 20141 19 200640 20542 2.6 20 8 1 4 25% 3513 84045 10098 28%
c v 42.51 28 131 0 45 20141 19 200640 17252 2.6 20 8 1 4 25% 3516 84045 10098 28%
c w 42.58 28 131 0 45 20141 19 200640 16239 2.6 20 8 1 4 25% 3516 84045 10098 28%
c = 43.00 28 131 0 45 20141 19 200640 16239 2.6 20 8 1 4 25% 3608 83959 10048 27%
c d 43.01 28 131 0 45 20141 19 200640 16067 2.6 20 8 1 4 25% 3503 83959 10048 27%
c t 43.01 28 131 0 45 20141 19 200640 16067 2.6 20 8 1 4 25% 3487 83959 10048 27%
c u 43.09 28 131 0 45 20141 19 200640 15562 2.6 20 8 1 4 25% 3480 83959 10048 27%
c v 43.12 28 131 0 45 20141 19 200640 15032 2.6 20 8 1 4 25% 3480 83959 10048 27%
c w 43.18 28 131 0 45 20141 19 200640 14800 2.6 20 8 1 4 25% 3480 83959 10048 27%
c x 43.26 28 131 0 45 20141 19 200640 14800 2.6 20 8 1 4 25% 3480 83936 10048 27%
c
c  seconds   switched      rate          size/glue tier1    binary         remaining
c         MB   reductions    conflicts         size  tier2     irredundant
c           level   restarts        redundant    glue   trail         variables
c
c t 43.68 28 131 0 45 20141 19 200640 14800 2.6 20 8 1 4 25% 3474 83936 10048 27%
c i 43.69 28 131 0 45 20141 19 200640 14800 2.6 20 8 1 4 25% 3474 83936 10048 27%
c i 43.69 28 131 0 45 20145 19 200854 14944 2.6 20 8 1 4 25% 3484 83936 10047 27%
c i 43.70 28 130 0 45 20158 19 201251 15286 2.6 20 8 1 4 25% 3493 83936 10046 27%
c - 43.79 28 126 0 46 20282 18 205401 15446 2.6 19 8 1 5 24% 3502 83935 10046 27%
c - 43.92 28 119 0 47 20402 17 212184 17794 2.5 19 8 1 5 23% 3534 83932 10046 27%
c i 43.92 28 118 0 47 20402 17 212482 17985 2.5 19 8 1 5 23% 3545 83931 10044 27%
c i 43.97 28 115 0 47 20407 16 215526 20502 2.5 19 7 1 5 22% 3574 83931 10022 27%
c i 43.97 28 115 0 47 20409 16 215711 20628 2.5 19 7 1 5 22% 3581 83931 10021 27%
c i 43.97 28 115 0 47 20409 16 215740 20630 2.5 19 7 1 5 22% 3591 83931 10019 27%
c i 43.97 28 115 0 47 20409 16 215771 20643 2.5 19 7 1 5 22% 3593 83931 10016 27%
c i 43.98 28 115 0 47 20409 16 215773 20644 2.5 19 7 1 5 22% 3593 83931 10014 27%
c i 43.98 28 115 0 47 20409 16 215774 20643 2.5 19 7 1 5 22% 3593 83931 10010 27%
c i 43.98 28 115 0 47 20409 16 215779 20644 2.5 19 7 1 5 22% 3594 83931 10006 27%
c } 43.98 28 115 0 47 20409 16 215781 20644 2.5 19 7 1 5 22% 3594 83931 9886 27%
c 0 43.98 28 115 0 47 20409 16 215781 20644 2.5 19 7 1 5 22% 3594 83931 9886 27%
c
c ---- [ result ] ------------------------------------------------------------
c
s UNSATISFIABLE
c
c ---- [ profiling ] ---------------------------------------------------------
c
c          29.77   67.70 %  search
c          29.77   67.70 %  focused
c          13.63   30.99 %  simplify
c          13.03   29.64 %  probe
c           6.15   13.98 %  sweep
c           4.77   10.85 %  vivify
c           0.91    2.06 %  eliminate
c           0.79    1.79 %  factor
c           0.61    1.38 %  congruence
c           0.54    1.22 %  substitute
c           0.48    1.08 %  preprocess
c           0.24    0.55 %  reduce
c           0.17    0.38 %  subsume
c           0.16    0.35 %  fastel
c           0.13    0.29 %  transitive
c           0.06    0.14 %  backbone
c           0.06    0.14 %  lucky
c           0.04    0.08 %  parse
c =============================================
c          43.98  100.00 %  total
c
c ---- [ statistics ] --------------------------------------------------------
c
c chronological:                         5476                3 %  conflicts
c conflicts:                           215781             4906.82 per second
c congruent:                             3951               11 %  variables
c decisions:                          4074087               18.88 per conflict
c eliminated:                           19868               54 %  variables
c factored:                              3601               10 %  variables
c fast_eliminated:                      11054               56 %  eliminated
c fast_strengthened:                        2                0 %  per strengthened
c fast_subsumed:                           65                0 %  per subsumed
c iterations:                              38                0 %  variables
c propagations:                     176886542          4022366    per second
c reductions:                              47             4591    interval
c reordered:                                6            35964    interval
c restarts:                             20409               11    interval
c strengthened:                          5100                0 %  checks
c substituted:                          10264               28 %  variables
c subsumed:                             14144                0 %  checks
c switched:                                 0                0    interval
c vivified:                             98697               13 %  checks
c
c ---- [ glue usage ] --------------------------------------------------------
c
c focused glue 1 used 379595 clauses 60.54% accumulated 60.54% tier1
c focused glue 2 used 117704 clauses 18.77% accumulated 79.32%
c focused glue 3 used  40534 clauses  6.46% accumulated 85.78%
c focused glue 4 used  23913 clauses  3.81% accumulated 89.59%
c focused glue 5 used  15200 clauses  2.42% accumulated 92.02% tier2
c
c ---- [ resources ] ---------------------------------------------------------
c
c maximum-resident-set-size:         30412800 bytes         29 MB
c process-time:                            44s              43.98 seconds
c
c ---- [ shutting down ] -----------------------------------------------------
c
c exit 20
